p edge 512 20
e 481 370 -999
e 370 139 -999
e 139 90 -1000
e 306 90 -999
e 399 306 -998
e 399 122 -998
e 382 122 -999
e 382 205 -1000
e 205 140 -998
e 485 140 -997
e 485 222 -999
e 360 222 -998
e 413 360 -997
e 413 233 -999
e 426 233 -999
e 426 268 -997
e 268 29 -992
e 56 29 -1000
e 98 56 -1000
e 481 98 -1000
